PARAMETER_FILE = even/LKH_uncomplete_graph/x5/de/par/random71.par
PROBLEM_FILE = even/LKH_uncomplete_graph/x5/de/mat/random71.tsp
Successes/Runs = 0/10
Cost.min = 669, Cost.avg = 669.00, Cost.max = 669
Gap.min = 0.0000%, Gap.avg = 0.0000%, Gap.max = 0.0000%
Trials.min = 1000, Trials.avg = 1000.0, Trials.max = 1000
Time.min = 0.10 sec., Time.avg = 0.11 sec., Time.max = 0.13 sec.
Time.total = 1.16 sec.
请按任意键继续. . . 
